GLPSOL--GLPK LP/MIP Solver 5.0
Parameter(s) specified in the command line:
 --lp ../modeles/10_354.lp --log 10_354.log
Reading problem data from '../modeles/10_354.lp'...
3581 rows, 7100 columns, 24810 non-zeros
3540 integer variables, all of which are binary
10697 lines were read
GLPK Integer Optimizer 5.0
3581 rows, 7100 columns, 24810 non-zeros
3540 integer variables, all of which are binary
Preprocessing...
3500 constraint coefficient(s) were reduced
3581 rows, 7090 columns, 24800 non-zeros
3540 integer variables, all of which are binary
Scaling...
 A: min|aij| =  1.277e-04  max|aij| =  4.000e+00  ratio =  3.133e+04
GM: min|aij| =  7.516e-02  max|aij| =  1.330e+01  ratio =  1.770e+02
EQ: min|aij| =  5.650e-03  max|aij| =  1.000e+00  ratio =  1.770e+02
2N: min|aij| =  3.906e-03  max|aij| =  1.771e+00  ratio =  4.534e+02
Constructing initial basis...
Size of triangular part is 3581
Solving LP relaxation...
GLPK Simplex Optimizer 5.0
3581 rows, 7090 columns, 24800 non-zeros
      0: obj =   2.000000000e+01 inf =   4.950e+01 (21)
    209: obj =   3.331763842e-01 inf =   0.000e+00 (0)
*   676: obj =  -3.162249615e+00 inf =   5.738e-14 (0)
OPTIMAL LP SOLUTION FOUND
Integer optimization begins...
Long-step dual simplex will be used
+   676: mip =     not found yet >=              -inf        (1; 0)
+   679: >>>>>  -3.162249615e+00 >=  -3.162249615e+00 < 0.1% (3; 0)
+   679: mip =  -3.162249615e+00 >=     tree is empty   0.0% (0; 5)
INTEGER OPTIMAL SOLUTION FOUND
Time used:   0.1 secs
Memory used: 10.4 Mb (10900700 bytes)
